Version identifier: 20.1.0.0 | 2020-11-10 | 9bedb6d68
Tried aggregator 3 times.
MIP Presolve eliminated 2693 rows and 1368 columns.
MIP Presolve modified 6252 coefficients.
Aggregator did 233 substitutions.
Reduced MIP has 3483 rows, 2811 columns, and 11368 nonzeros.
Reduced MIP has 513 binaries, 2298 generals, 0 SOSs, and 0 indicators.
Presolve time = 0.04 sec. (17.63 ticks)
Probing fixed 74 vars, tightened 662 bounds.
Probing time = 0.01 sec. (1.45 ticks)
Tried aggregator 3 times.
MIP Presolve eliminated 1386 rows and 229 columns.
MIP Presolve modified 369 coefficients.
Aggregator did 71 substitutions.
Reduced MIP has 2026 rows, 2511 columns, and 6523 nonzeros.
Reduced MIP has 717 binaries, 1794 generals, 0 SOSs, and 0 indicators.
Presolve time = 0.02 sec. (9.60 ticks)
Probing fixed 8 vars, tightened 16 bounds.
Probing time = 0.00 sec. (0.70 ticks)
Tried aggregator 2 times.
Detecting symmetries...
MIP Presolve eliminated 34 rows and 34 columns.
MIP Presolve modified 742 coefficients.
Aggregator did 32 substitutions.
Reduced MIP has 1960 rows, 2445 columns, and 6325 nonzeros.
Reduced MIP has 701 binaries, 1744 generals, 0 SOSs, and 0 indicators.
Presolve time = 0.01 sec. (7.15 ticks)
Probing time = 0.00 sec. (0.60 ticks)
Clique table members: 79.
MIP emphasis: balance optimality and feasibility.
MIP search method: dynamic search.
Parallel mode: deterministic, using up to 24 threads.
Root relaxation solution time = 0.03 sec. (8.49 ticks)

        Nodes                                         Cuts/
   Node  Left     Objective  IInf  Best Integer    Best Bound    ItCnt     Gap

      0     0        0.0000   107                      0.0000      695         
*     0+    0                           30.0000        0.0000           100.00%
      0     0        0.0000   145       30.0000     Cuts: 355     1110  100.00%
      0     0        0.0000    34       30.0000     Cuts: 167     1436  100.00%
      0     0        0.0000    31       30.0000      Cuts: 40     1481  100.00%
      0     0        0.0000    50       30.0000      Cuts: 24     1594  100.00%
*     0+    0                           26.0000        0.0000           100.00%
      0     2        0.0000    50       26.0000        2.5000     1594   90.38%
Elapsed time = 1.82 sec. (322.01 ticks, tree = 0.02 MB, solutions = 2)
    331   128       13.2500   113       26.0000       10.2857    88128   60.44%
   1300    29       22.2857   356       26.0000       20.0000   206297   23.08%

Cover cuts applied:  7
Implied bound cuts applied:  242
Flow cuts applied:  4
Mixed integer rounding cuts applied:  33
Zero-half cuts applied:  201
Lift and project cuts applied:  34
Gomory fractional cuts applied:  70

Root node processing (before b&c):
  Real time             =    1.71 sec. (321.01 ticks)
Parallel b&c, 24 threads:
  Real time             =    3.71 sec. (558.38 ticks)
  Sync time (average)   =    2.42 sec.
  Wait time (average)   =    0.00 sec.
                          ------------
Total (root+branch&cut) =    5.43 sec. (879.39 ticks)

Solution status = Optimal
Solution LB = 26
Solution UB = 26
Runtime = 5.43651 seconds
	Command being timed: "/home/min/git_repos/CS598MEBProject/CNT-ILP/build/cnt -s 2 ./output/k8_n40/simC_c1_k8_n40_u3_s2_del04.input-right.cnp"
	User time (seconds): 83.46
	System time (seconds): 0.35
	Percent of CPU this job got: 1525%
	Elapsed (wall clock) time (h:mm:ss or m:ss): 0:05.49
	Average shared text size (kbytes): 0
	Average unshared data size (kbytes): 0
	Average stack size (kbytes): 0
	Average total size (kbytes): 0
	Maximum resident set size (kbytes): 203300
	Average resident set size (kbytes): 0
	Major (requiring I/O) page faults: 0
	Minor (reclaiming a frame) page faults: 84161
	Voluntary context switches: 11813
	Involuntary context switches: 11944
	Swaps: 0
	File system inputs: 0
	File system outputs: 16
	Socket messages sent: 0
	Socket messages received: 0
	Signals delivered: 0
	Page size (bytes): 4096
	Exit status: 0
